Set parameter TokenServer to value "opt-license.discovery.wisc.edu"
Set parameter TimeLimit to value 600
Gurobi Optimizer version 9.5.1 build v9.5.1rc2 (linux64)
Thread count: 40 physical cores, 80 logical processors, using up to 32 threads
Optimize a model with 5041 rows, 4900 columns and 19530 nonzeros
Model fingerprint: 0x0ca9f289
Variable types: 0 continuous, 4900 integer (4900 binary)
Coefficient statistics:
  Matrix range     [1e+00, 1e+03]
  Objective range  [1e+00, 1e+01]
  Bounds range     [1e+00, 1e+00]
  RHS range        [1e+00, 8e+00]
Presolve removed 70 rows and 0 columns
Presolve time: 0.09s
Presolved: 4971 rows, 4900 columns, 19530 nonzeros
Variable types: 0 continuous, 4900 integer (4900 binary)
Found heuristic solution: objective 212.2145019

Root relaxation: objective 7.900927e+01, 1098 iterations, 0.08 seconds (0.06 work units)

    Nodes    |    Current Node    |     Objective Bounds      |     Work
 Expl Unexpl |  Obj  Depth IntInf | Incumbent    BestBd   Gap | It/Node Time

     0     0   79.00927    0  192  212.21450   79.00927  62.8%     -    0s
H    0     0                     101.9358739   79.00927  22.5%     -    0s
H    0     0                      96.2192479   79.00927  17.9%     -    0s
H    0     0                      85.6979566   79.00927  7.80%     -    0s
     0     0   79.67107    0  237   85.69796   79.67107  7.03%     -    1s
H    0     0                      84.1859605   79.67107  5.36%     -    1s
     0     0   79.73081    0  270   84.18596   79.73081  5.29%     -    1s
     0     0   79.76921    0  276   84.18596   79.76921  5.25%     -    2s
     0     0   79.76921    0  192   84.18596   79.76921  5.25%     -    2s
H    0     0                      83.5291062   79.76921  4.50%     -    2s
     0     0   79.76921    0  252   83.52911   79.76921  4.50%     -    2s
     0     0   79.77182    0  271   83.52911   79.77182  4.50%     -    3s
     0     0   79.78695    0  260   83.52911   79.78695  4.48%     -    3s
     0     0   79.81656    0  295   83.52911   79.81656  4.44%     -    3s
     0     0   79.82141    0  303   83.52911   79.82141  4.44%     -    3s
     0     0   79.82141    0  303   83.52911   79.82141  4.44%     -    3s
     0     0   79.82141    0  192   83.52911   79.82141  4.44%     -    4s
     0     0   79.82141    0  249   83.52911   79.82141  4.44%     -    4s
     0     0   79.82141    0  267   83.52911   79.82141  4.44%     -    4s
     0     0   79.88588    0  280   83.52911   79.88588  4.36%     -    4s
     0     0   79.91883    0  260   83.52911   79.91883  4.32%     -    4s
     0     0   79.91999    0  274   83.52911   79.91999  4.32%     -    4s
     0     0   79.92135    0  267   83.52911   79.92135  4.32%     -    4s
     0     0   79.99710    0  255   83.52911   79.99710  4.23%     -    5s
     0     0   79.99710    0  255   83.52911   79.99710  4.23%     -    5s
     0     2   79.99710    0  255   83.52911   79.99710  4.23%     -    5s
* 2540  1657              45      83.3509607   80.34999  3.60%  50.7    8s
H 2633  1657                      83.1793878   80.34999  3.40%  50.8    8s
  3524  1963   82.45069   12   14   83.17939   80.48382  3.24%  50.7   10s
H 3533  1943                      83.1214654   80.48382  3.17%  50.8   10s
  5991  2945   83.07209   14  292   83.12147   80.81221  2.78%  47.7   15s
  6004  2962   80.81221   13  271   83.12147   80.81221  2.78%  48.2   20s
H 6111  2873                      82.7717469   80.81221  2.37%  49.3   21s
H 6180  2744                      82.1793878   80.81221  1.66%  49.6   21s

Cutting planes:
  Gomory: 1
  Cover: 1
  MIR: 40
  StrongCG: 35
  Flow cover: 16
  GUB cover: 8
  Zero half: 2

Explored 8195 nodes (413215 simplex iterations) in 23.37 seconds (17.10 work units)
Thread count was 32 (of 80 available processors)

Solution count 10: 82.1794 82.7717 83.1215 ... 101.936

Optimal solution found (tolerance 1.00e-04)
Best objective 8.217938777708e+01, best bound 8.217938777708e+01, gap 0.0000%
